unsat
(interpolants
 (and (not (= 1 v315))
     (not (= 1 v291))
     (not (= 1 v92))
     (not (= 0 v528))
     (not (= 1 v362))
     (not (= 1 v116))
     (not (= 1 v244))
     (not (= 1 v222))
     (not (= 1 v211))
     (not (= 1 v160))
     (not (= 1 v110)))
 (let ((a!1 (or (not (= v852 0)) (and (= v852 0) (not (= v999 0)))))
      (a!3 (or (not (= v914 1)) (and (not (= v914 0)) (not (= v999 0))))))
(let ((a!2 (and (not (= v766 0)) (or (and a!1 (= v852 0)) (= v766 0))))
      (a!4 (and (not (= v843 0)) (or (and a!1 (= v852 0)) (= v843 0))))
      (a!5 (and (not (= v635 0)) (or (and a!1 (= v852 0)) (= v635 0)))))
(let ((a!6 (and (= v852 0)
                (not (= v999 0))
                (or (not (= v766 1)) a!2)
                a!3
                (or (not (= v843 1)) a!4)
                (or (not (= v635 1)) a!5)))
      (a!9 (and (not (= v914 0))
                (not (= v999 0))
                (or (not (= v766 1)) a!2)
                a!3
                (or (not (= v843 1)) a!4)
                (or (not (= v635 1)) a!5))))
(let ((a!7 (and (or (not (= v852 0)) a!6) (= v852 0))))
(let ((a!8 (or (not (= v766 1)) (and (not (= v766 0)) (or a!7 (= v766 0)))))
      (a!10 (or (not (= v843 1)) (and (not (= v843 0)) (or a!7 (= v843 0)))))
      (a!11 (or (not (= v635 1)) (and (not (= v635 0)) (or a!7 (= v635 0))))))
  (and (not (= 0 v999))
       (or (not (= v766 1)) a!2)
       a!3
       (or (not (= v843 1)) a!4)
       (or (not (= v635 1)) a!5)
       a!8
       (or (not (= v914 1)) a!9)
       a!10
       a!11))))))
 (let ((a!1 (or (and (not (= v1391 0)) (or (= v1329 0) (= v1391 0))) (= v1391 0)))
      (a!2 (or (not (= v1329 0)) (and (= v1329 0) (or (= v1329 0) (= v1391 0))))))
(let ((a!3 (and (or (= v1329 0) (= v1391 0))
                a!1
                (or (and a!2 (= v1329 0)) (= v1391 0)))))
  (or a!3 (and a!2 (= v1329 0))))))
